c Generated tree graph
p edge 958 957
e 1 111
e 1 245
e 1 524
e 2 126
e 3 81
e 4 77
e 4 90
e 4 453
e 5 173
e 5 177
e 5 193
e 5 747
e 6 321
e 7 96
e 8 585
e 9 55
e 9 257
e 9 705
e 10 232
e 10 326
e 11 21
e 12 331
e 13 676
e 13 936
e 14 305
e 15 76
e 15 873
e 16 497
e 16 919
e 17 420
e 17 584
e 17 657
e 17 785
e 18 66
e 18 383
e 19 516
e 20 624
e 21 339
e 21 675
e 21 766
e 22 894
e 22 913
e 22 933
e 23 95
e 24 111
e 24 958
e 25 82
e 25 330
e 26 577
e 27 142
e 27 682
e 28 544
e 29 836
e 29 878
e 30 315
e 30 318
e 30 439
e 30 490
e 30 528
e 30 706
e 30 799
e 31 34
e 31 521
e 32 95
e 32 664
e 32 846
e 33 952
e 34 417
e 34 516
e 35 179
e 36 643
e 36 659
e 37 669
e 37 721
e 38 577
e 39 98
e 39 632
e 40 576
e 40 735
e 41 143
e 41 635
e 42 471
e 42 757
e 43 529
e 44 648
e 45 658
e 45 739
e 46 123
e 46 201
e 46 559
e 46 824
e 47 571
e 48 166
e 49 107
e 49 578
e 50 907
e 51 185
e 51 777
e 52 241
e 52 288
e 53 67
e 53 80
e 53 826
e 54 184
e 54 582
e 54 789
e 55 336
e 55 494
e 55 642
e 56 137
e 56 753
e 56 814
e 57 331
e 58 255
e 58 588
e 59 742
e 59 898
e 60 376
e 60 810
e 61 653
e 61 712
e 61 716
e 62 329
e 62 590
e 63 557
e 64 337
e 65 869
e 66 885
e 66 935
e 68 409
e 69 112
e 70 161
e 70 892
e 71 212
e 72 120
e 72 162
e 72 169
e 72 837
e 73 671
e 73 806
e 73 918
e 74 322
e 74 674
e 75 465
e 75 935
e 76 302
e 76 371
e 77 586
e 77 937
e 78 92
e 78 445
e 78 765
e 79 104
e 79 723
e 80 334
e 80 565
e 81 379
e 81 651
e 81 761
e 82 306
e 82 898
e 83 240
e 83 746
e 84 397
e 84 722
e 85 308
e 85 313
e 85 417
e 86 846
e 87 271
e 88 592
e 88 594
e 89 282
e 89 529
e 89 817
e 89 955
e 90 218
e 90 258
e 90 570
e 90 957
e 91 240
e 91 269
e 93 299
e 93 881
e 94 171
e 94 646
e 94 858
e 95 709
e 96 437
e 96 561
e 96 694
e 97 648
e 98 689
e 99 163
e 100 831
e 100 862
e 101 214
e 101 608
e 102 211
e 102 571
e 102 662
e 103 451
e 103 704
e 104 140
e 104 757
e 105 785
e 106 480
e 107 837
e 108 369
e 108 552
e 109 890
e 109 934
e 110 749
e 111 900
e 112 499
e 112 586
e 113 131
e 113 408
e 113 749
e 114 131
e 115 338
e 116 489
e 116 802
e 117 286
e 117 444
e 118 129
e 118 337
e 118 449
e 118 561
e 118 799
e 119 465
e 119 939
e 120 164
e 120 946
e 121 314
e 121 326
e 121 768
e 122 256
e 122 271
e 122 370
e 122 744
e 123 489
e 124 352
e 125 401
e 126 632
e 127 276
e 128 454
e 128 523
e 128 831
e 128 901
e 130 326
e 130 538
e 132 577
e 132 871
e 133 704
e 134 144
e 135 175
e 135 259
e 136 266
e 136 324
e 136 550
e 137 405
e 137 407
e 137 434
e 137 605
e 138 288
e 138 684
e 139 390
e 139 434
e 140 222
e 140 543
e 141 531
e 142 247
e 142 392
e 143 891
e 144 416
e 145 184
e 145 421
e 145 580
e 146 441
e 146 541
e 147 224
e 147 628
e 148 320
e 148 955
e 149 207
e 149 342
e 150 423
e 151 691
e 152 553
e 153 236
e 153 391
e 154 219
e 154 922
e 155 191
e 155 917
e 155 945
e 156 395
e 156 504
e 157 805
e 158 873
e 159 170
e 159 466
e 159 862
e 160 330
e 160 430
e 162 797
e 163 238
e 164 614
e 165 647
e 166 429
e 167 239
e 167 411
e 167 583
e 167 949
e 168 448
e 168 497
e 168 631
e 168 880
e 169 474
e 169 823
e 171 704
e 171 935
e 172 427
e 173 570
e 174 465
e 174 786
e 175 262
e 175 542
e 176 198
e 176 228
e 176 430
e 176 543
e 178 545
e 178 638
e 179 383
e 180 768
e 180 838
e 181 733
e 182 563
e 183 806
e 185 760
e 186 743
e 187 554
e 187 630
e 188 225
e 188 652
e 189 321
e 189 838
e 190 632
e 190 788
e 191 634
e 191 811
e 191 942
e 192 278
e 193 798
e 194 524
e 195 354
e 195 435
e 195 869
e 196 440
e 197 701
e 197 942
e 198 765
e 199 464
e 200 441
e 201 373
e 202 830
e 203 370
e 204 772
e 205 845
e 206 325
e 206 562
e 206 793
e 207 385
e 208 364
e 208 941
e 209 632
e 209 657
e 210 609
e 210 746
e 212 674
e 212 906
e 213 236
e 214 477
e 214 819
e 215 731
e 216 244
e 216 301
e 216 958
e 217 279
e 218 734
e 219 483
e 220 307
e 221 469
e 221 527
e 221 754
e 223 864
e 224 343
e 224 455
e 224 636
e 226 926
e 226 954
e 227 843
e 227 873
e 229 367
e 229 574
e 230 560
e 230 665
e 230 882
e 231 289
e 231 333
e 231 865
e 232 355
e 233 244
e 233 763
e 234 924
e 235 498
e 236 488
e 237 448
e 237 909
e 238 310
e 238 388
e 240 706
e 242 458
e 243 493
e 243 632
e 245 506
e 245 886
e 245 887
e 246 508
e 246 679
e 247 311
e 247 598
e 248 667
e 249 512
e 250 608
e 251 729
e 252 486
e 252 571
e 252 803
e 252 808
e 253 414
e 254 359
e 254 835
e 255 836
e 260 750
e 261 688
e 261 938
e 262 417
e 262 805
e 263 572
e 264 365
e 264 591
e 265 494
e 266 792
e 267 853
e 268 731
e 268 825
e 269 744
e 270 459
e 270 956
e 271 780
e 272 459
e 272 555
e 272 930
e 273 452
e 274 330
e 274 882
e 275 767
e 276 303
e 277 519
e 278 428
e 279 898
e 280 693
e 280 729
e 280 813
e 281 362
e 281 484
e 281 931
e 283 727
e 283 844
e 284 713
e 284 740
e 285 481
e 286 548
e 286 564
e 287 718
e 289 331
e 289 644
e 290 364
e 290 544
e 291 725
e 292 507
e 293 818
e 294 328
e 294 542
e 295 911
e 296 646
e 297 903
e 298 782
e 298 943
e 300 816
e 300 872
e 303 535
e 303 654
e 303 764
e 304 676
e 304 848
e 305 655
e 307 374
e 307 725
e 307 765
e 307 875
e 308 769
e 309 436
e 310 627
e 311 853
e 312 569
e 312 626
e 313 378
e 313 423
e 313 633
e 313 788
e 314 612
e 316 956
e 317 642
e 317 672
e 319 387
e 319 940
e 323 653
e 324 658
e 324 745
e 324 944
e 326 424
e 326 895
e 327 359
e 329 441
e 329 612
e 329 709
e 331 438
e 332 402
e 332 711
e 332 756
e 333 777
e 334 495
e 335 346
e 335 491
e 335 732
e 336 558
e 337 366
e 337 406
e 338 736
e 338 917
e 339 864
e 340 503
e 341 485
e 341 527
e 341 637
e 342 913
e 343 483
e 343 567
e 343 598
e 343 641
e 343 740
e 343 761
e 344 389
e 344 463
e 345 380
e 345 599
e 346 750
e 347 361
e 347 494
e 348 893
e 349 954
e 350 607
e 351 371
e 351 563
e 351 700
e 352 514
e 352 766
e 353 425
e 353 508
e 354 605
e 354 897
e 355 511
e 356 421
e 356 549
e 356 847
e 357 723
e 358 888
e 359 440
e 359 755
e 360 674
e 360 833
e 361 673
e 362 377
e 363 698
e 366 752
e 368 733
e 370 828
e 371 401
e 371 690
e 372 607
e 375 514
e 375 715
e 375 833
e 375 888
e 376 384
e 376 771
e 376 895
e 377 549
e 378 425
e 380 668
e 381 561
e 381 871
e 382 806
e 386 557
e 386 921
e 388 409
e 392 941
e 393 472
e 393 686
e 394 440
e 395 418
e 395 462
e 395 782
e 395 862
e 396 479
e 396 800
e 396 808
e 397 466
e 398 602
e 399 606
e 400 449
e 403 861
e 404 880
e 404 894
e 405 714
e 405 776
e 407 883
e 408 918
e 409 697
e 409 771
e 410 469
e 412 730
e 412 809
e 412 841
e 413 708
e 414 643
e 415 876
e 415 943
e 416 595
e 418 489
e 418 505
e 418 778
e 418 830
e 419 553
e 422 611
e 423 852
e 424 874
e 425 860
e 425 955
e 426 451
e 426 475
e 426 655
e 427 676
e 428 430
e 429 549
e 431 447
e 431 860
e 432 481
e 432 775
e 432 861
e 432 927
e 433 684
e 433 879
e 436 815
e 438 680
e 439 676
e 440 482
e 440 695
e 441 855
e 442 660
e 443 558
e 443 781
e 443 881
e 444 667
e 446 573
e 447 659
e 450 799
e 450 921
e 451 610
e 452 563
e 452 684
e 452 950
e 454 686
e 456 548
e 456 617
e 457 633
e 458 655
e 459 519
e 460 574
e 460 958
e 461 855
e 462 903
e 463 540
e 464 951
e 466 619
e 467 813
e 468 794
e 469 601
e 469 762
e 470 602
e 470 656
e 470 782
e 472 877
e 473 755
e 473 793
e 474 773
e 475 866
e 476 595
e 477 867
e 478 693
e 480 526
e 480 602
e 482 724
e 483 884
e 484 496
e 486 953
e 487 519
e 488 946
e 490 796
e 492 669
e 492 790
e 493 713
e 494 892
e 495 703
e 495 714
e 497 634
e 497 698
e 498 914
e 498 915
e 500 519
e 500 602
e 501 534
e 502 557
e 503 791
e 504 717
e 507 697
e 509 672
e 510 756
e 512 649
e 512 854
e 513 515
e 515 660
e 515 726
e 517 635
e 518 559
e 520 619
e 522 894
e 523 533
e 525 708
e 530 716
e 530 924
e 531 806
e 532 928
e 532 942
e 533 868
e 534 589
e 534 820
e 536 554
e 536 678
e 537 752
e 539 546
e 539 556
e 540 576
e 541 581
e 542 728
e 545 829
e 546 548
e 547 657
e 548 827
e 549 661
e 551 724
e 551 791
e 552 779
e 553 646
e 556 645
e 556 950
e 558 899
e 559 579
e 560 834
e 562 568
e 563 683
e 564 857
e 566 832
e 568 840
e 569 596
e 570 665
e 572 783
e 573 626
e 573 755
e 574 671
e 575 579
e 580 622
e 583 625
e 583 867
e 585 788
e 586 920
e 587 838
e 587 896
e 589 907
e 591 791
e 593 877
e 594 632
e 595 603
e 597 729
e 597 789
e 599 912
e 600 882
e 603 808
e 604 641
e 605 625
e 605 708
e 605 821
e 606 659
e 607 764
e 607 818
e 608 640
e 609 646
e 611 711
e 612 638
e 613 936
e 615 940
e 616 726
e 617 688
e 618 685
e 618 821
e 620 818
e 621 654
e 623 788
e 624 731
e 629 925
e 630 929
e 632 947
e 634 842
e 635 723
e 638 902
e 639 680
e 639 787
e 641 845
e 647 735
e 647 755
e 648 723
e 650 836
e 652 692
e 653 708
e 655 854
e 657 692
e 658 814
e 658 929
e 660 677
e 663 714
e 663 804
e 665 932
e 666 727
e 668 707
e 668 874
e 670 802
e 672 719
e 676 910
e 677 808
e 681 801
e 682 726
e 685 873
e 687 911
e 687 921
e 691 799
e 696 787
e 696 904
e 699 882
e 702 897
e 704 751
e 705 772
e 707 783
e 707 784
e 708 794
e 709 738
e 709 748
e 710 720
e 711 725
e 716 749
e 718 864
e 719 752
e 719 801
e 720 732
e 720 957
e 723 795
e 725 890
e 726 816
e 726 887
e 727 804
e 729 774
e 730 889
e 733 827
e 737 779
e 740 851
e 741 863
e 743 843
e 749 952
e 758 836
e 759 766
e 762 808
e 767 866
e 767 925
e 768 815
e 768 904
e 770 941
e 772 940
e 778 936
e 779 885
e 779 927
e 781 946
e 784 856
e 787 864
e 790 871
e 792 859
e 793 889
e 799 832
e 807 858
e 807 889
e 812 825
e 812 850
e 813 926
e 818 904
e 819 948
e 820 887
e 822 862
e 824 951
e 825 840
e 838 893
e 839 920
e 849 871
e 856 928
e 863 937
e 870 932
e 878 929
e 886 912
e 887 916
e 891 923
e 900 905
e 904 934
e 908 939
e 911 914
e 920 926
e 936 937
